# bulk Si via Stillinger-Weber

units		metal
atom_style	atomic
newton off
thermo 1

read_data water.data
#lattice		diamond 5.431
#region		box block 0 20 0 20 0 10
#create_box	1 box
#create_atoms	1 box

pair_style	nequip
pair_coeff	* * deployed.pth
mass            1 1.00794
mass            2 15.9994

velocity	all create 1000.0 376847 loop geom

neighbor	1.0 bin
neigh_modify    delay 5 every 1

fix		1 all nve

timestep	0.001

thermo_style custom step time temp pe etotal press spcpu cpuremain

run 0
write_dump all custom output.dump id type x y z fx fy fz

run		100

run 100

