
        units		metal
        atom_style	atomic
        newton off
        thermo 1

        pair_style	nequip
        pair_coeff	* * /tmp/tmpuqgmkvqq/deployed.pth
        mass  1 1.0
mass  2 1.0
mass  3 1.0

        neighbor	1.0 bin
        neigh_modify    delay 0 every 1

        fix		1 all nve

        timestep	0.001

        compute atomicenergies all pe/atom
        compute totalatomicenergy all reduce sum c_atomicenergies

        thermo_style custom step time temp pe c_totalatomicenergy etotal press spcpu cpuremain

read_data structure0.data
run 0
write_dump all custom output0.dump id type x y z fx fy fz

read_data structure1.data
run 0
write_dump all custom output1.dump id type x y z fx fy fz

read_data structure2.data
run 0
write_dump all custom output2.dump id type x y z fx fy fz

read_data structure3.data
run 0
write_dump all custom output3.dump id type x y z fx fy fz

read_data structure4.data
run 0
write_dump all custom output4.dump id type x y z fx fy fz
