units		metal
atom_style	atomic
newton off
thermo 1

read_data structure.data

pair_style	zero 8.0
pair_coeff * *
mass            1 28

velocity	all create 1000.0 376847 loop geom

neighbor	1.0 bin
neigh_modify    delay 5 every 1

fix		1 all nve

timestep	0.001

compute polarization all nequip best_deployed.pth polarization 3 Si

thermo_style custom step time temp pe etotal press c_polarization[*]

run 0

